p cnf 256 17
x6 7 9 11 12 13 14 17 18 19 21 22 23 26 28 31 32 33 36 37 38 39 41 43 45 46 47 48 49 50 51 53 54 57 59 60 64 65 66 68 71 72 73 75 76 77 78 79 81 83 84 85 86 87 89 90 91 94 96 97 100 101 102 103 104 105 106 111 112 114 117 118 119 121 126 127 130 131 137 139 140 141 142 144 145 147 148 152 154 156 161 162 164 165 166 168 173 174 175 178 179 185 186 189 194 199 200 201 202 206 209 219 222 224 225 228 231 233 234 235 236 239 240 242 246 247 251 253 256 0
x1 2 3 4 6 9 12 13 20 22 24 25 26 28 29 30 33 34 39 46 48 50 52 56 57 58 59 61 63 66 67 68 69 71 72 74 79 81 83 86 87 89 93 94 97 98 102 103 105 107 110 118 120 121 123 124 126 129 131 133 135 138 140 141 143 144 145 147 158 159 162 164 166 167 171 173 175 176 179 181 182 184 186 187 189 190 191 192 193 196 197 201 202 203 204 206 208 209 210 211 212 217 218 219 220 221 222 223 224 229 230 232 234 235 236 238 239 241 244 248 251 0
x3 8 9 11 12 14 18 23 25 26 28 30 31 32 33 35 37 39 41 43 45 48 49 50 51 52 53 54 55 58 59 61 63 64 65 66 67 68 69 70 71 72 77 79 80 81 83 87 91 94 95 96 97 103 104 105 106 107 108 110 112 114 115 116 118 119 121 126 128 129 130 131 132 135 138 140 143 144 145 147 149 151 153 154 155 159 160 162 163 167 168 171 172 175 176 177 179 180 182 183 185 186 190 191 193 196 197 199 202 203 205 206 207 208 209 210 211 212 214 215 216 217 218 221 222 223 225 226 228 229 230 231 232 233 234 236 237 238 242 243 244 246 247 248 253 0
x1 8 9 11 21 22 25 27 30 31 32 33 35 40 41 42 46 48 50 51 53 57 58 62 65 69 72 73 74 76 78 81 85 86 87 88 92 96 97 98 99 101 102 103 105 106 109 111 113 116 117 120 121 122 124 125 126 127 129 130 131 136 138 139 142 143 144 145 146 148 150 151 157 158 159 161 164 165 166 167 168 169 173 174 175 176 180 182 188 189 191 192 193 194 197 198 199 200 202 206 208 209 212 214 215 217 219 220 221 222 225 226 227 228 231 232 233 234 235 238 239 240 241 242 243 245 249 253 255 0
x2 3 5 6 8 10 11 12 14 16 19 21 23 24 25 27 28 29 31 35 37 40 41 42 43 44 46 47 48 49 51 52 54 55 62 66 69 70 72 74 77 80 82 84 85 86 88 89 91 94 98 100 103 104 107 108 109 110 111 113 114 115 116 121 122 123 125 128 129 131 132 135 137 138 139 140 141 144 145 146 147 151 152 154 155 156 158 159 160 162 163 166 168 171 172 173 174 175 176 177 181 183 185 186 195 197 199 201 204 205 206 214 215 216 217 222 224 225 226 231 232 235 238 240 241 242 244 248 249 251 252 253 255 0
x2 3 4 5 6 11 12 13 14 15 17 18 19 20 21 23 26 28 29 30 31 32 33 34 36 38 39 40 42 44 45 46 49 51 53 58 59 61 65 66 67 68 72 73 74 77 79 80 81 82 83 84 85 88 90 92 97 98 100 102 104 105 106 108 110 113 116 117 119 120 121 126 129 130 131 133 137 138 146 148 151 154 155 157 159 160 161 163 164 165 169 173 177 180 183 185 186 187 190 193 194 198 200 203 206 208 211 212 213 215 217 220 222 225 227 229 230 232 234 235 236 238 242 244 245 248 249 250 251 252 256 0
x1 3 4 6 7 10 12 13 17 21 23 24 27 30 31 33 35 36 41 42 43 44 45 49 50 53 61 62 64 67 69 70 71 73 74 75 76 77 78 79 80 83 84 85 86 87 90 93 94 95 96 101 102 103 104 108 110 112 115 116 117 118 119 124 125 128 132 133 135 141 143 144 145 146 149 150 151 152 154 155 156 157 158 159 164 165 168 169 170 172 173 174 175 177 178 179 180 186 188 189 194 195 196 197 198 199 201 203 204 205 207 210 211 212 213 217 218 220 222 223 225 226 227 229 231 232 233 234 235 237 239 244 245 250 254 255 256 0
x1 5 7 9 14 15 18 20 22 24 25 26 31 33 35 38 40 41 44 46 47 50 51 52 53 54 56 57 59 60 65 68 69 73 74 75 78 79 80 81 82 83 84 85 89 90 91 92 93 97 101 103 104 105 106 107 109 110 111 113 115 117 119 120 123 124 125 127 129 132 134 136 137 142 143 145 151 155 156 159 160 161 164 165 167 168 170 171 172 175 176 179 180 181 183 184 186 187 188 191 192 194 196 197 198 199 200 203 206 207 208 209 211 212 214 215 216 218 220 221 223 228 230 231 234 235 236 238 239 241 242 244 245 250 251 253 254 256 0
x5 6 7 8 10 13 14 18 21 22 25 26 28 32 33 35 38 39 40 41 42 43 46 47 50 52 54 57 58 60 63 64 65 67 68 71 72 74 75 76 83 84 87 88 89 90 91 93 95 96 99 103 104 108 110 111 113 117 118 121 122 124 126 127 128 129 130 131 134 136 138 140 141 142 145 149 151 153 154 156 162 163 164 168 171 174 176 177 181 187 189 190 191 192 193 194 196 197 198 199 202 204 205 206 207 208 209 210 213 214 215 216 217 219 221 223 225 226 228 229 234 237 238 240 241 242 244 247 248 249 250 251 252 255 0
x1 2 3 6 7 8 9 20 21 22 25 33 34 35 36 37 38 39 42 43 45 48 50 51 54 56 57 59 60 61 62 64 65 71 73 80 84 88 92 94 95 96 97 98 101 102 104 105 107 108 109 110 111 112 113 114 117 122 123 124 126 127 131 132 133 136 138 140 146 147 149 150 154 156 160 162 165 167 170 171 177 178 181 182 183 184 185 186 187 189 190 193 194 195 196 198 203 204 205 207 208 209 210 211 212 213 214 217 218 219 220 221 224 228 229 231 232 234 235 240 241 243 249 250 251 252 253 255 0
x1 4 5 6 7 8 12 14 15 16 17 18 19 21 22 25 27 28 30 31 35 38 39 41 47 48 51 52 53 54 56 58 59 60 62 65 67 68 69 72 74 76 78 81 83 86 88 91 95 96 98 99 100 102 103 105 107 109 114 115 118 121 123 125 126 130 131 132 133 135 138 139 140 145 148 149 151 152 157 158 159 161 165 170 175 176 177 178 179 180 181 183 185 188 189 196 202 203 205 207 210 211 212 213 214 217 218 220 222 225 226 227 231 233 234 236 238 239 242 244 246 247 250 256 0
x4 5 6 10 11 16 18 19 21 23 25 26 27 28 30 32 33 37 38 39 40 41 44 45 46 49 50 52 54 58 59 60 61 64 65 68 72 74 75 80 81 84 88 89 94 96 97 99 100 105 108 109 110 112 115 117 118 119 121 125 127 128 130 131 134 135 136 137 138 139 140 142 144 145 146 148 149 152 155 156 157 159 160 167 170 173 177 178 180 182 184 185 186 187 190 192 193 196 197 198 199 201 204 210 211 212 213 217 218 219 220 221 222 226 229 234 238 239 241 242 243 244 245 246 247 249 250 251 253 254 256 0
x2 5 6 7 9 15 16 17 18 20 22 24 25 30 33 34 38 39 41 42 46 47 48 51 52 54 55 56 57 58 59 62 64 65 66 73 74 75 78 80 82 83 84 86 88 90 91 92 93 95 96 98 99 100 102 104 105 106 116 117 118 121 122 123 124 125 126 127 128 129 130 133 134 135 137 138 139 140 141 142 143 144 146 148 150 152 155 157 159 164 165 167 172 174 176 177 178 180 181 182 184 185 187 188 189 190 191 193 196 197 198 199 200 201 203 207 208 209 210 211 212 213 216 219 220 221 223 226 228 229 231 233 235 238 240 241 243 247 249 253 255 256 0
x1 3 4 5 8 9 10 14 15 16 18 19 21 23 25 29 31 33 35 36 37 38 39 40 41 45 46 47 50 53 58 64 66 67 68 73 74 76 77 81 83 84 91 93 96 97 99 103 104 106 107 110 111 114 116 119 121 123 124 125 128 130 134 137 138 140 141 143 144 145 146 147 148 149 151 155 156 158 159 161 163 165 175 178 179 182 185 186 189 191 193 194 195 197 198 202 203 207 208 209 210 213 214 217 218 221 223 225 226 227 229 230 231 232 234 236 239 240 241 242 243 244 246 248 253 0
x2 3 4 6 7 9 11 16 18 21 22 23 24 26 28 29 32 34 36 37 38 39 40 41 42 48 50 53 57 59 60 61 63 64 65 67 69 70 71 73 74 75 77 78 81 83 84 86 91 92 93 94 95 96 99 100 101 103 104 106 107 108 109 111 112 113 115 123 125 127 130 132 135 136 139 143 144 145 146 147 149 150 152 154 157 158 159 161 164 165 166 168 170 174 175 176 178 179 180 187 188 190 192 195 196 197 198 199 200 201 202 203 207 208 209 210 212 216 221 223 224 225 227 229 230 231 234 241 242 245 246 247 248 254 256 0
x2 4 7 8 10 14 15 17 19 20 21 23 24 26 28 30 31 33 39 40 41 45 49 51 52 54 55 56 57 58 60 61 63 65 66 68 71 72 74 75 77 80 81 82 83 85 89 92 95 97 99 100 102 104 105 106 110 113 118 119 120 122 127 131 132 133 135 136 139 140 146 151 157 159 161 162 164 165 166 168 169 171 172 173 175 176 183 185 186 193 195 196 199 200 205 206 210 212 215 219 221 222 225 226 234 235 236 237 238 242 244 247 249 252 254 255 256 0
x5 6 7 8 11 14 15 19 21 22 23 29 31 35 36 37 38 39 45 46 47 48 51 52 54 55 58 61 62 63 65 66 67 69 70 71 79 80 81 83 87 89 95 96 97 98 100 101 102 103 110 111 112 115 117 123 124 126 127 131 133 135 136 139 141 142 144 146 149 150 151 158 161 163 166 170 172 173 175 176 177 180 182 185 186 187 188 195 196 197 198 199 201 202 204 207 208 210 211 213 214 216 217 220 223 225 226 227 229 231 234 235 236 238 239 240 249 253 255 256 0
